CMD:
./solvers/bin/cadical --plain --no-reduce -t 1600 ./data/cnfs//nusmvreactorp4/nusmvreactorp4.77.cnf

c --- [ banner ] -------------------------------------------------------------
c 
c CaDiCaL SAT Solver
c Copyright (c) 2016-2024
c A. Biere, M. Fleury, N. Froleyks, K. Fazekas, F. Pollitt, T. Faller
c JKU Linz, University of Freiburg, TU Wien
c 
c Version 2.1.3 5296d3d2a9bf48c154ab2acb5e44625776d821bf
c g++ (Gentoo 12.3.1_p20230526 p2) 12.3.1 20230526 -Wall -Wextra -O3 -DNDEBUG
c Sat Aug 9 07:26:21 PDT 2025 Linux cedar2.int.cedar.computecanada.ca 5.14.0-362.24.2.el9_3.x86_64 x86_64
c 
c --- [ limit ] --------------------------------------------------------------
c 
c setting time limit to 1600 seconds real time (due to '-t 1600')
c 
c --- [ parsing input ] ------------------------------------------------------
c 
c reading DIMACS file from './data/cnfs//nusmvreactorp4/nusmvreactorp4.77.cnf'
c opening file to read './data/cnfs//nusmvreactorp4/nusmvreactorp4.77.cnf'
c found 'p cnf 102872 290938' header
c parsed 290938 clauses in 0.05 seconds process time
c 
c --- [ options ] ------------------------------------------------------------
c 
c   --compact=false                (different from default 'true')
c   --decompose=false              (different from default 'true')
c   --deduplicate=false            (different from default 'true')
c   --elim=false                   (different from default 'true')
c   --probe=false                  (different from default 'true')
c   --reduce=false                 (different from default 'true')
c   --subsume=false                (different from default 'true')
c   --ternary=false                (different from default 'true')
c   --transred=false               (different from default 'true')
c   --vivify=false                 (different from default 'true')
c 
c --- [ solving ] ------------------------------------------------------------
c 
c time measured in process time since initialization
c 
c  seconds  reductions  redundant  irredundant
c         MB    restarts       trail       variables
c          level   conflicts       glue         remaining
c 
c *  0.05 50  0 0   0    0    0  0% 0 289184 88180 86%
c {  0.05 50  0 0   0    0    0  0% 0 289184 88180 86%
c i  0.05 50  1 0   0    1    0 15% 0 289184 87294 85%
c i  0.05 50  1 0   0    2    0 15% 0 289184 87284 85%
c i  0.05 50  1 0   0    3    0 15% 0 289184 87264 85%
c i  0.05 50 70 0   1   17   10 16% 1 289184 87245 85%
c i  0.05 51 83 0   1   28   17 18% 1 289184 87228 85%
c i  0.06 51 84 0   1   29   17 20% 1 289184 87218 85%
c i  0.06 51 85 0   1   30   17 21% 1 289184 87201 85%
c i  0.07 51 124 0   2  102   88 34% 2 289184 87190 85%
c i  0.08 51 83 0   3  170  151 29% 2 289184 87137 85%
c i  0.08 51 83 0   4  172  152 29% 2 289184 87130 85%
c i  0.08 51 84 0   4  176  155 29% 2 289184 86978 85%
c i  0.08 51 84 0   4  177  155 29% 2 289184 86972 85%
c i  0.09 51 85 0   5  227  198 32% 2 289184 86970 85%
c i  0.09 51 84 0   5  228  198 32% 2 289184 86968 85%
c i  0.09 51 84 0   5  229  198 32% 2 289184 86967 85%
c i  0.09 51 84 0   5  230  198 32% 2 289184 86939 85%
c i  0.09 51 74 0  13  263  226 30% 2 289184 86926 84%
c i  0.09 51 74 0  13  264  226 30% 2 289184 86918 84%
c 
c  seconds  reductions  redundant  irredundant
c         MB    restarts       trail       variables
c          level   conflicts       glue         remaining
c 
c i  0.10 51 74 0  13  265  226 30% 2 289184 86909 84%
c i  0.10 51 73 0  13  266  226 30% 2 289184 86901 84%
c i  0.10 51 72 0  13  273  232 30% 2 289184 86900 84%
c i  0.10 51 71 0  13  275  233 30% 2 289184 86742 84%
c i  0.10 51 68 0  13  288  241 29% 2 289184 86551 84%
c i  0.10 51 68 0  13  289  241 29% 2 289184 86547 84%
c i  0.10 51 68 0  13  290  241 29% 2 289184 86446 84%
c i  0.10 51 68 0  13  291  241 29% 2 289184 85678 83%
c i  0.10 51 67 0  13  292  241 29% 2 289184 85677 83%
c i  0.10 51 67 0  13  293  241 29% 2 289184 85651 83%
c i  0.10 51 67 0  13  294  241 29% 2 289184 85650 83%
c i  0.10 51 67 0  13  295  241 29% 2 289184 85613 83%
c i  0.10 51 66 0  13  296  241 29% 2 289184 85612 83%
c i  0.10 51 66 0  13  297  241 29% 2 289184 85510 83%
c i  0.10 51 66 0  13  299  242 29% 2 289184 85472 83%
c }  0.10 51 66 0  13  301  242 29% 2 289184 85198 83%
c 0  0.10 51 66 0  13  301  242 29% 2 289184 85198 83%
c 
c --- [ result ] -------------------------------------------------------------
c 
s UNSATISFIABLE
c 
c --- [ run-time profiling ] -------------------------------------------------
c 
c process time taken by individual solving procedures
c (percentage relative to process time for solving)
c 
c         0.06   99.79% search
c         0.06   99.11% unstable
c         0.05   79.63% parse
c         0.00    0.66% lucky
c         0.00    0.00% simplify
c   =================================
c         0.06   55.36% solve
c 
c last line shows process time for solving
c (percentage relative to total process time)
c 
c --- [ statistics ] ---------------------------------------------------------
c 
c chronological:               143        47.51 %  of conflicts
c conflicts:                   301      5304.99    per second
c decisions:                   953     16796.21    per second
c fixed:                     17674        17.18 %  of all variables
c learned:                     285        94.68 %  per conflict
c learned_lits:               1495       100.00 %  learned literals
c minimized:                     0         0.00 %  learned literals
c shrunken:                    157        10.50 %  learned literals
c minishrunken:                 19         1.27 %  learned literals
c otfs:                          6         1.99 %  of conflict
c propagations:             646612        11.40 M  per second
c restarts:                     13        23.15    interval
c subsumed:                      8         0.00 %  of all clauses
c strengthened:                  6         0.00 %  of all clauses
c 
c seconds are measured in process time for solving
c 
c --- [ resources ] ----------------------------------------------------------
c 
c total process time since initialization:         0.10    seconds
c total real time since initialization:            0.11    seconds
c maximum resident set size of process:           50.27    MB
c 
c --- [ shutting down ] ------------------------------------------------------
c 
c exit 20
